5 5
2 50 4 12 3 69 0 73 1 44
3 52 2 9 0 99 1 65 4 10
4 46 1 58 0 37 3 52 2 99
2 81 3 13 1 6 0 58 4 48
2 32 3 11 4 81 0 5 1 6
-1
0 1 3 4 5
0 1 2 5
0 1 4 5
0 1 2 3 5
0 3 5
-2
58 195 247 319
60 62 318
63 248 428
105 102 129 223
135 214

376 8
7 12 3 18 23
11 8 17 4 24
0 6 15 20 14
5 2 16 21 13
10 1 9 22 19
